unsat
((set-logic NIA)
(declare-fun y!2 () Int)
(declare-fun z!1 () Int)
(declare-fun n!0 () Int)
(declare-fun x!3 () Int)
(proof
(let ((?x584 (* (- 12) y!2)))
 (let ((?x1090 (* z!1 z!1)))
 (let ((?x1082 (* (- 6) z!1)))
 (let ((?x282 (* z00 z00)))
 (let ((?x283 (* (- 1) ?x282)))
 (let ((?x43 (* 12 y00)))
 (let ((?x49 (* 6 z00)))
 (let ((?x741 (+ ?x49 ?x43 ?x283 ?x1082 ?x1090 ?x584)))
 (let (($x871 (<= ?x741 0)))
 (let (($x381 (= ?x741 0)))
 (let ((?x393 (+ 6 z!1)))
 (let ((?x1193 (+ 1 n!0)))
 (let ((?x909 (* ?x1193 ?x1193 ?x1193 ?x393 ?x393 ?x393 (+ z!1 y!2) ?x741)))
 (let (($x826 (= ?x909 0)))
 (let (($x601 (not $x826)))
 (let ((?x667 (* z00 z00 y00 y00)))
 (let ((?x647 (+ (* 36 (* z00 x!3)) (* 4 (* y!2 y!2 y!2)) (* (- 18) (* z00 z00 x!3)) (* 24 (* z00 y!2)) (* (- 216) (* y00 x00)) (* (- 1) (* z00 z00 y!2 y!2)) (* (- 24) (* z00 y00)) (* 108 (* x00 y!2)) (* 216 (* y00 x!3)) (* (- 36) (* z00 x00)) (* (- 96) (* y00 y00)) (* z00 z00 z00 y!2) (* 2 (* z00 z00 z00 x!3)) (* 12 (* z00 y00 y00)) (* 10 (* z00 z00 y00)) (* (- 24) (* y!2 y!2)) ?x667 (* (- 108) (* x!3 x!3)) (* 18 (* z00 z00 x00)) (* (- 36) (* z00 y00 x!3)) (* (- 10) (* z00 z00 y!2)) (* (- 16) (* y00 y00 y00)) (* (- 108) (* x!3 y!2)) (* 120 (* y00 y!2)) (* 36 (* z00 y00 x00)) (* (- 18) (* z00 y00 y!2)) (* (- 1) (* z00 z00 z00 y00)) (* (- 2) (* z00 z00 z00 x00)) (* 6 (* z00 y!2 y!2)) (* (- 108) (* x00 x00)) (* 12 (* y00 y!2 y!2)) (* 216 (* x00 x!3)))))
 (let ((?x438 (* (- 72) y!2)))
 (let ((?x1080 (* z00 y00 y!2)))
 (let ((?x794 (* (- 18) (* x00 z!1))))
 (let ((?x294 (* (- 108) x!3)))
 (let ((?x786 (* 18 (* z!1 x!3))))
 (let ((?x778 (* z!1 y!2)))
 (let ((?x780 (* 12 ?x778)))
 (let ((?x633 (* y00 z!1)))
 (let ((?x760 (* (- 12) ?x633)))
 (let ((?x599 (* z00 y00 y00)))
 (let ((?x490 (* y00 y00)))
 (let ((?x694 (* 36 ?x490)))
 (let ((?x423 (* z00 y00)))
 (let ((?x539 (* 6 ?x423)))
 (let ((?x74 (* 108 x00)))
 (let ((?x67 (* 72 y00)))
 (let ((?x887 (+ ?x67 ?x74 (* 3 (* z00 z00 x!3)) (* (- 6) (* z00 y!2)) (* 18 (* y00 x00)) ?x539 (* (- 18) (* x00 y!2)) (* (- 18) (* y00 x!3)) ?x694 ?x599 (* (- 3) (* z00 z00 y00)) ?x760 (* 3 (* z00 z!1 x!3)) ?x780 (* (- 3) (* z00 z00 x00)) (* (- 1) (* z!1 y!2 y!2)) (* 3 (* z00 z00 y!2)) ?x786 (* 2 (* y00 y00 z!1)) (* (- 1) (* y00 z!1 y!2)) (* 18 (* x!3 y!2)) (* (- 36) (* y00 y!2)) ?x294 ?x794 (* (- 3) (* z00 x00 z!1)) ?x1080 ?x438 (* (- 2) (* z00 y!2 y!2)))))
 (let ((?x868 (* z00 z00 y!2)))
 (let ((?x934 (* 24 ?x490)))
 (let ((?x698 (* (- 6) ?x423)))
 (let ((?x593 (+ ?x67 ?x74 (* 18 (* z00 x!3)) (* z00 y00 z!1) (* 6 (* z00 y!2)) ?x698 (* (- 18) (* z00 x00)) ?x934 (* (- 1) (* z00 z00 y00)) ?x760 (* (- 12) (* y!2 y!2)) (* (- 1) (* z00 z!1 y!2)) ?x780 ?x868 ?x786 (* (- 12) (* y00 y!2)) ?x294 ?x794 ?x438)))
 (let ((?x857 (* (- 6) ?x282)))
 (let ((?x55 (* z00 z00 z00)))
 (let ((?x881 (+ ?x67 ?x55 ?x74 ?x857 (* 6 (* z00 z!1)) (* (- 18) ?x423) (* 12 ?x633) (* (- 1) (* z00 z00 z!1)) (* 6 ?x778) ?x294 ?x438)))
 (let (($x894 (and (= (+ z00 (* (- 6) n00) (* (- 1) z!1) (* 6 n!0)) 0) $x381 (= ?x881 0) (= ?x593 0) (= ?x887 0) (= ?x647 0) $x601)))
 (let ((?x878 (* ?x1193 ?x1193 ?x1193 ?x393 ?x393 ?x393 (+ y!2 z!1) (+ ?x584 ?x1082 ?x49 ?x43 ?x1090 ?x283))))
 (let ((?x1207 (* x00 x00)))
 (let ((?x1208 (* 108 ?x1207)))
 (let ((?x1104 (* z00 z00 z00 x00)))
 (let ((?x1105 (* 2 ?x1104)))
 (let ((?x1101 (* z00 z00 z00 y00)))
 (let ((?x998 (* z00 y00 x00)))
 (let ((?x1011 (* (- 36) ?x998)))
 (let ((?x895 (* y00 y00 y00)))
 (let ((?x896 (* 16 ?x895)))
 (let ((?x810 (* z00 z00 x00)))
 (let ((?x1061 (* (- 18) ?x810)))
 (let ((?x682 (* (- 1) ?x667)))
 (let ((?x624 (* z00 z00 y00)))
 (let ((?x1162 (* (- 10) ?x624)))
 (let ((?x634 (* (- 12) ?x599)))
 (let ((?x961 (* 96 ?x490)))
 (let ((?x460 (* z00 x00)))
 (let ((?x378 (* 36 ?x460)))
 (let ((?x788 (* 24 ?x423)))
 (let ((?x370 (* y00 x00)))
 (let ((?x361 (* 216 ?x370)))
 (let ((?x883 (+ (* 10 (* y!2 z00 z00)) (* y!2 y!2 z00 z00) (* (- 1) (* y!2 z00 z00 z00)) ?x361 (* (- 2) (* x!3 z00 z00 z00)) (* 108 (* x!3 y!2)) ?x788 ?x378 (* 24 (* y!2 y!2)) ?x961 (* (- 120) (* y!2 y00)) (* 18 (* x!3 z00 z00)) (* (- 24) (* y!2 z00)) ?x634 ?x1162 (* (- 36) (* x!3 z00)) (* 18 (* y!2 z00 y00)) ?x682 (* 108 (* x!3 x!3)) (* (- 4) (* y!2 y!2 y!2)) (* (- 6) (* y!2 y!2 z00)) (* (- 108) (* y!2 x00)) ?x1061 (* (- 216) (* x!3 y00)) ?x896 (* (- 12) (* y!2 y!2 y00)) ?x1011 (* (- 216) (* x!3 x00)) ?x1101 ?x1105 (* 36 (* x!3 z00 y00)) ?x1208)))
 (let ((?x811 (* 3 ?x810)))
 (let ((?x873 (* 3 ?x624)))
 (let ((?x606 (* (- 1) ?x599)))
 (let ((?x971 (* 18 (* z!1 x00))))
 (let ((?x793 (* (- 36) ?x490)))
 (let ((?x592 (* z!1 y00)))
 (let ((?x697 (* 12 ?x592)))
 (let ((?x993 (* (- 18) (* x!3 z!1))))
 (let ((?x371 (* (- 18) ?x370)))
 (let ((?x637 (* y!2 z!1)))
 (let ((?x459 (* (- 12) ?x637)))
 (let ((?x502 (* (- 108) x00)))
 (let ((?x445 (* (- 72) y00)))
 (let ((?x331 (* 72 y!2)))
 (let ((?x1148 (* 108 x!3)))
 (let ((?x376 (+ ?x1148 ?x331 ?x445 ?x502 (* (- 3) (* y!2 z00 z00)) (* y!2 y!2 z!1) ?x459 ?x371 (* (- 18) (* x!3 y!2)) ?x993 ?x697 ?x698 ?x793 ?x971 (* 36 (* y!2 y00)) (* (- 3) (* x!3 z00 z00)) (* 6 (* y!2 z00)) ?x606 ?x873 (* 3 (* z!1 z00 x00)) (* (- 1) (* y!2 z00 y00)) (* (- 3) (* x!3 z!1 z00)) (* 2 (* y!2 y!2 z00)) (* 18 (* y!2 x00)) ?x811 (* 18 (* x!3 y00)) (* y!2 z!1 y00) (* (- 2) (* z!1 y00 y00)))))
 (let ((?x519 (* (- 24) ?x490)))
 (let ((?x461 (* 18 ?x460)))
 (let ((?x323 (+ ?x1148 ?x331 ?x445 ?x502 (* y!2 z!1 z00) (* (- 1) (* y!2 z00 z00)) (* (- 1) (* z!1 z00 y00)) ?x459 ?x993 ?x697 ?x539 ?x461 (* 12 (* y!2 y!2)) ?x519 ?x971 (* 12 (* y!2 y00)) (* (- 6) (* y!2 z00)) ?x624 (* (- 18) (* x!3 z00)))))
 (let ((?x424 (* 18 ?x423)))
 (let ((?x386 (* 6 ?x282)))
 (let ((?x375 (* (- 1) ?x55)))
 (let ((?x389 (+ ?x1148 ?x331 ?x445 ?x375 ?x502 (* z!1 z00 z00) ?x386 (* (- 6) ?x637) (* (- 12) ?x592) ?x424 (* (- 6) (* z!1 z00)))))
 (let ((?x353 (* (- 12) y00)))
 (let ((?x352 (* (- 6) z00)))
 (let (($x1146 (= (+ (* 12 y!2) (* 6 z!1) ?x352 ?x353 (* (- 1) ?x1090) ?x282) 0)))
 (let (($x503 (and (= (+ z!1 (* (- 6) n!0) (* (- 1) z00) (* 6 n00)) 0) $x1146 (= ?x389 0) (= ?x323 0) (= ?x376 0) (= ?x883 0) (not (= ?x878 0)))))
 (let (($x576 (exists ((x Int) (y Int) (z Int) (n Int) )(! (let ((?x282 (* z00 z00)))
 (let ((?x283 (* (- 1) ?x282)))
 (let ((?x50 (* z z)))
 (let ((?x43 (* 12 y00)))
 (let ((?x49 (* 6 z00)))
 (let ((?x328 (* (- 6) z)))
 (let ((?x306 (* (- 12) y)))
 (let ((?x344 (+ ?x306 ?x328 ?x49 ?x43 ?x50 ?x283)))
 (let ((?x215 (+ y z)))
 (let ((?x671 (+ 6 z)))
 (let ((?x935 (+ 1 n)))
 (let ((?x1207 (* x00 x00)))
 (let ((?x1208 (* 108 ?x1207)))
 (let ((?x1104 (* z00 z00 z00 x00)))
 (let ((?x1105 (* 2 ?x1104)))
 (let ((?x1101 (* z00 z00 z00 y00)))
 (let ((?x998 (* z00 y00 x00)))
 (let ((?x1011 (* (- 36) ?x998)))
 (let ((?x895 (* y00 y00 y00)))
 (let ((?x896 (* 16 ?x895)))
 (let ((?x810 (* z00 z00 x00)))
 (let ((?x1061 (* (- 18) ?x810)))
 (let ((?x766 (* (- 4) (* y y y))))
 (let ((?x714 (* 108 (* x x))))
 (let ((?x667 (* z00 z00 y00 y00)))
 (let ((?x682 (* (- 1) ?x667)))
 (let ((?x624 (* z00 z00 y00)))
 (let ((?x1162 (* (- 10) ?x624)))
 (let ((?x599 (* z00 y00 y00)))
 (let ((?x634 (* (- 12) ?x599)))
 (let ((?x490 (* y00 y00)))
 (let ((?x961 (* 96 ?x490)))
 (let ((?x464 (* y y)))
 (let ((?x709 (* 24 ?x464)))
 (let ((?x460 (* z00 x00)))
 (let ((?x378 (* 36 ?x460)))
 (let ((?x423 (* z00 y00)))
 (let ((?x788 (* 24 ?x423)))
 (let ((?x370 (* y00 x00)))
 (let ((?x361 (* 216 ?x370)))
 (let ((?x201 (* y y z00 z00)))
 (let ((?x1228 (+ (* 10 (* y z00 z00)) ?x201 (* (- 1) (* y z00 z00 z00)) ?x361 (* (- 2) (* x z00 z00 z00)) (* 108 (* x y)) ?x788 ?x378 ?x709 ?x961 (* (- 120) (* y y00)) (* 18 (* x z00 z00)) (* (- 24) (* y z00)) ?x634 ?x1162 (* (- 36) (* x z00)) (* 18 (* y z00 y00)) ?x682 ?x714 ?x766 (* (- 6) (* y y z00)) (* (- 108) (* y x00)) ?x1061 (* (- 216) (* x y00)) ?x896 (* (- 12) (* y y y00)) ?x1011 (* (- 216) (* x x00)) ?x1101 ?x1105 (* 36 (* x z00 y00)) ?x1208)))
 (let (($x1233 (= ?x1228 0)))
 (let ((?x811 (* 3 ?x810)))
 (let ((?x873 (* 3 ?x624)))
 (let ((?x606 (* (- 1) ?x599)))
 (let ((?x536 (* 18 (* z x00))))
 (let ((?x793 (* (- 36) ?x490)))
 (let ((?x698 (* (- 6) ?x423)))
 (let ((?x397 (* z y00)))
 (let ((?x398 (* 12 ?x397)))
 (let ((?x431 (* (- 18) (* x z))))
 (let ((?x371 (* (- 18) ?x370)))
 (let ((?x366 (* y z)))
 (let ((?x390 (* (- 12) ?x366)))
 (let ((?x135 (* y y z)))
 (let ((?x502 (* (- 108) x00)))
 (let ((?x445 (* (- 72) y00)))
 (let ((?x71 (* 72 y)))
 (let ((?x64 (* 108 x)))
 (let ((?x929 (+ ?x64 ?x71 ?x445 ?x502 (* (- 3) (* y z00 z00)) ?x135 ?x390 ?x371 (* (- 18) (* x y)) ?x431 ?x398 ?x698 ?x793 ?x536 (* 36 (* y y00)) (* (- 3) (* x z00 z00)) (* 6 (* y z00)) ?x606 ?x873 (* 3 (* z z00 x00)) (* (- 1) (* y z00 y00)) (* (- 3) (* x z z00)) (* 2 (* y y z00)) (* 18 (* y x00)) ?x811 (* 18 (* x y00)) (* y z y00) (* (- 2) (* z y00 y00)))))
 (let (($x936 (= ?x929 0)))
 (let ((?x519 (* (- 24) ?x490)))
 (let ((?x467 (* 12 ?x464)))
 (let ((?x461 (* 18 ?x460)))
 (let ((?x539 (* 6 ?x423)))
 (let ((?x103 (* y z z00)))
 (let ((?x678 (+ ?x64 ?x71 ?x445 ?x502 ?x103 (* (- 1) (* y z00 z00)) (* (- 1) (* z z00 y00)) ?x390 ?x431 ?x398 ?x539 ?x461 ?x467 ?x519 ?x536 (* 12 (* y y00)) (* (- 6) (* y z00)) ?x624 (* (- 18) (* x z00)))))
 (let (($x683 (= ?x678 0)))
 (let ((?x424 (* 18 ?x423)))
 (let ((?x386 (* 6 ?x282)))
 (let ((?x76 (* z z00 z00)))
 (let ((?x55 (* z00 z00 z00)))
 (let ((?x375 (* (- 1) ?x55)))
 (let ((?x518 (+ ?x64 ?x71 ?x445 ?x375 ?x502 ?x76 ?x386 (* (- 6) ?x366) (* (- 12) ?x397) ?x424 (* (- 6) (* z z00)))))
 (let (($x523 (= ?x518 0)))
 (let ((?x354 (* (- 1) ?x50)))
 (let ((?x353 (* (- 12) y00)))
 (let ((?x352 (* (- 6) z00)))
 (let ((?x46 (* 6 z)))
 (let ((?x45 (* 12 y)))
 (let (($x356 (= (+ ?x45 ?x46 ?x352 ?x353 ?x354 ?x282) 0)))
 (let (($x274 (= (+ z (* (- 6) n) (* (- 1) z00) (* 6 n00)) 0)))
 (and $x274 $x356 $x523 $x683 $x936 $x1233 (not (= (* ?x935 ?x935 ?x935 ?x671 ?x671 ?x671 ?x215 ?x344) 0)))))))))))))))))))))))))))))))))))))))))))))))))))))))))))))))))))))))))))))))))))))) :qid k!38))
 ))
 (let (($x360 (exists ((x Int) (y Int) (z Int) (n Int) )(! (let ((?x49 (* 6 z00)))
 (let ((?x306 (* (- 12) y)))
 (let ((?x43 (* 12 y00)))
 (let ((?x282 (* z00 z00)))
 (let ((?x283 (* (- 1) ?x282)))
 (let ((?x1065 (+ (- 36) ?x283 ?x43 ?x306 (* (- 18) z) ?x49 (* (+ 6 z) (+ 6 z)))))
 (let ((?x215 (+ y z)))
 (let ((?x671 (+ 6 z)))
 (let ((?x935 (+ 1 n)))
 (let (($x684 (not (= (* ?x935 ?x935 ?x935 ?x671 ?x671 ?x671 ?x215 ?x1065) 0))))
 (let ((?x1207 (* x00 x00)))
 (let ((?x1208 (* 108 ?x1207)))
 (let ((?x196 (* y00 z00 z00 z00)))
 (let ((?x490 (* y00 y00)))
 (let ((?x961 (* 96 ?x490)))
 (let ((?x895 (* y00 y00 y00)))
 (let ((?x896 (* 16 ?x895)))
 (let ((?x766 (* (- 4) (* y y y))))
 (let ((?x714 (* 108 (* x x))))
 (let ((?x464 (* y y)))
 (let ((?x709 (* 24 ?x464)))
 (let ((?x1284 (+ (* 216 (* x00 y00)) (* 108 (* y x)) (* 36 (* x00 z00)) (* (- 2) (* z00 z00 z00 x)) (* 18 (* z00 z00 x)) (* (- 12) (* y00 y00 z00)) (* (- 1) (* y00 y00 z00 z00)) ?x709 ?x714 ?x766 (* 18 (* y00 z00 y)) (* 24 (* y00 z00)) (* (- 120) (* y00 y)) (* (- 24) (* z00 y)) ?x896 (* (- 6) (* z00 y y)) ?x961 (* (- 12) (* y00 y y)) (* (- 36) (* x00 y00 z00)) (* (- 108) (* x00 y)) (* (- 18) (* x00 z00 z00)) (* (- 216) (* x00 x)) ?x196 (* 2 (* x00 z00 z00 z00)) (* (- 216) (* y00 x)) (* z00 z00 y y) (* (- 10) (* y00 z00 z00)) (* (- 36) (* z00 x)) (* 36 (* y00 z00 x)) (* 10 (* z00 z00 y)) ?x1208 (* (- 1) (* z00 z00 z00 y)))))
 (let (($x1289 (= ?x1284 0)))
 (let ((?x74 (* 108 x00)))
 (let ((?x875 (* (- 72) y)))
 (let ((?x67 (* 72 y00)))
 (let ((?x858 (* (- 108) x)))
 (let ((?x437 (* x00 z)))
 (let ((?x941 (* (- 18) ?x437)))
 (let ((?x694 (* 36 ?x490)))
 (let ((?x604 (* z y)))
 (let ((?x960 (* 12 ?x604)))
 (let ((?x333 (* z00 y)))
 (let ((?x279 (* (- 6) ?x333)))
 (let ((?x802 (* y00 z00)))
 (let ((?x443 (* 6 ?x802)))
 (let ((?x565 (* y00 z)))
 (let ((?x394 (* (- 12) ?x565)))
 (let ((?x808 (* y00 z00 y)))
 (let ((?x113 (* y00 y00 z00)))
 (let ((?x591 (* z x)))
 (let ((?x722 (* 18 ?x591)))
 (let ((?x242 (+ (* 18 (* x00 y00)) (* 18 (* y x)) ?x722 (* 3 (* z00 z00 x)) ?x113 (* (- 3) (* x00 z00 z)) ?x808 ?x394 ?x443 (* (- 36) (* y00 y)) ?x279 ?x960 (* 3 (* z00 z x)) (* (- 2) (* z00 y y)) ?x694 ?x941 (* (- 1) (* z y y)) (* (- 18) (* x00 y)) (* (- 3) (* x00 z00 z00)) ?x858 ?x67 (* (- 18) (* y00 x)) ?x875 ?x74 (* (- 1) (* y00 z y)) (* (- 3) (* y00 z00 z00)) (* 2 (* y00 y00 z)) (* 3 (* z00 z00 y)))))
 (let ((?x1172 (* z00 z00 y)))
 (let ((?x334 (* 6 ?x333)))
 (let ((?x731 (* (- 6) ?x802)))
 (let ((?x934 (* 24 ?x490)))
 (let ((?x531 (* y00 z00 z)))
 (let ((?x1111 (+ ?x531 ?x960 ?x722 (* (- 18) (* x00 z00)) (* (- 12) ?x464) ?x934 ?x941 ?x394 ?x731 (* (- 12) (* y00 y)) ?x858 ?x67 ?x334 ?x875 ?x74 (* (- 1) (* y00 z00 z00)) (* 18 (* z00 x)) (* (- 1) (* z00 z y)) ?x1172)))
 (let ((?x580 (* 12 ?x565)))
 (let ((?x857 (* (- 6) ?x282)))
 (let ((?x55 (* z00 z00 z00)))
 (let ((?x619 (+ (* 6 ?x604) ?x55 ?x857 ?x580 (* (- 18) ?x802) ?x858 ?x67 (* 6 (* z00 z)) ?x875 ?x74 (* (- 1) (* z00 z00 z)))))
 (let ((?x50 (* z z)))
 (let ((?x354 (* (- 1) ?x50)))
 (let ((?x352 (* (- 6) z00)))
 (let ((?x46 (* 6 z)))
 (let ((?x45 (* 12 y)))
 (let ((?x353 (* (- 12) y00)))
 (and (= (+ z (* (- 1) z00) (* (- 6) n) (* 6 n00)) 0) (= (+ ?x282 ?x353 ?x45 ?x46 ?x352 ?x354) 0) (= ?x619 0) (= ?x1111 0) (= ?x242 0) $x1289 $x684)))))))))))))))))))))))))))))))))))))))))))))))))))))))))))) :qid k!38))
 ))
 (let ((?x577 (lambda ((x Int) (y Int) (z Int) (n Int) )(let ((?x282 (* z00 z00)))
 (let ((?x283 (* (- 1) ?x282)))
 (let ((?x50 (* z z)))
 (let ((?x43 (* 12 y00)))
 (let ((?x49 (* 6 z00)))
 (let ((?x328 (* (- 6) z)))
 (let ((?x306 (* (- 12) y)))
 (let ((?x344 (+ ?x306 ?x328 ?x49 ?x43 ?x50 ?x283)))
 (let ((?x215 (+ y z)))
 (let ((?x671 (+ 6 z)))
 (let ((?x935 (+ 1 n)))
 (let ((?x1207 (* x00 x00)))
 (let ((?x1208 (* 108 ?x1207)))
 (let ((?x1104 (* z00 z00 z00 x00)))
 (let ((?x1105 (* 2 ?x1104)))
 (let ((?x1101 (* z00 z00 z00 y00)))
 (let ((?x998 (* z00 y00 x00)))
 (let ((?x1011 (* (- 36) ?x998)))
 (let ((?x895 (* y00 y00 y00)))
 (let ((?x896 (* 16 ?x895)))
 (let ((?x810 (* z00 z00 x00)))
 (let ((?x1061 (* (- 18) ?x810)))
 (let ((?x766 (* (- 4) (* y y y))))
 (let ((?x714 (* 108 (* x x))))
 (let ((?x667 (* z00 z00 y00 y00)))
 (let ((?x682 (* (- 1) ?x667)))
 (let ((?x624 (* z00 z00 y00)))
 (let ((?x1162 (* (- 10) ?x624)))
 (let ((?x599 (* z00 y00 y00)))
 (let ((?x634 (* (- 12) ?x599)))
 (let ((?x490 (* y00 y00)))
 (let ((?x961 (* 96 ?x490)))
 (let ((?x464 (* y y)))
 (let ((?x709 (* 24 ?x464)))
 (let ((?x460 (* z00 x00)))
 (let ((?x378 (* 36 ?x460)))
 (let ((?x423 (* z00 y00)))
 (let ((?x788 (* 24 ?x423)))
 (let ((?x370 (* y00 x00)))
 (let ((?x361 (* 216 ?x370)))
 (let ((?x201 (* y y z00 z00)))
 (let ((?x1228 (+ (* 10 (* y z00 z00)) ?x201 (* (- 1) (* y z00 z00 z00)) ?x361 (* (- 2) (* x z00 z00 z00)) (* 108 (* x y)) ?x788 ?x378 ?x709 ?x961 (* (- 120) (* y y00)) (* 18 (* x z00 z00)) (* (- 24) (* y z00)) ?x634 ?x1162 (* (- 36) (* x z00)) (* 18 (* y z00 y00)) ?x682 ?x714 ?x766 (* (- 6) (* y y z00)) (* (- 108) (* y x00)) ?x1061 (* (- 216) (* x y00)) ?x896 (* (- 12) (* y y y00)) ?x1011 (* (- 216) (* x x00)) ?x1101 ?x1105 (* 36 (* x z00 y00)) ?x1208)))
 (let (($x1233 (= ?x1228 0)))
 (let ((?x811 (* 3 ?x810)))
 (let ((?x873 (* 3 ?x624)))
 (let ((?x606 (* (- 1) ?x599)))
 (let ((?x536 (* 18 (* z x00))))
 (let ((?x793 (* (- 36) ?x490)))
 (let ((?x698 (* (- 6) ?x423)))
 (let ((?x397 (* z y00)))
 (let ((?x398 (* 12 ?x397)))
 (let ((?x431 (* (- 18) (* x z))))
 (let ((?x371 (* (- 18) ?x370)))
 (let ((?x366 (* y z)))
 (let ((?x390 (* (- 12) ?x366)))
 (let ((?x135 (* y y z)))
 (let ((?x502 (* (- 108) x00)))
 (let ((?x445 (* (- 72) y00)))
 (let ((?x71 (* 72 y)))
 (let ((?x64 (* 108 x)))
 (let ((?x929 (+ ?x64 ?x71 ?x445 ?x502 (* (- 3) (* y z00 z00)) ?x135 ?x390 ?x371 (* (- 18) (* x y)) ?x431 ?x398 ?x698 ?x793 ?x536 (* 36 (* y y00)) (* (- 3) (* x z00 z00)) (* 6 (* y z00)) ?x606 ?x873 (* 3 (* z z00 x00)) (* (- 1) (* y z00 y00)) (* (- 3) (* x z z00)) (* 2 (* y y z00)) (* 18 (* y x00)) ?x811 (* 18 (* x y00)) (* y z y00) (* (- 2) (* z y00 y00)))))
 (let (($x936 (= ?x929 0)))
 (let ((?x519 (* (- 24) ?x490)))
 (let ((?x467 (* 12 ?x464)))
 (let ((?x461 (* 18 ?x460)))
 (let ((?x539 (* 6 ?x423)))
 (let ((?x103 (* y z z00)))
 (let ((?x678 (+ ?x64 ?x71 ?x445 ?x502 ?x103 (* (- 1) (* y z00 z00)) (* (- 1) (* z z00 y00)) ?x390 ?x431 ?x398 ?x539 ?x461 ?x467 ?x519 ?x536 (* 12 (* y y00)) (* (- 6) (* y z00)) ?x624 (* (- 18) (* x z00)))))
 (let (($x683 (= ?x678 0)))
 (let ((?x424 (* 18 ?x423)))
 (let ((?x386 (* 6 ?x282)))
 (let ((?x76 (* z z00 z00)))
 (let ((?x55 (* z00 z00 z00)))
 (let ((?x375 (* (- 1) ?x55)))
 (let ((?x518 (+ ?x64 ?x71 ?x445 ?x375 ?x502 ?x76 ?x386 (* (- 6) ?x366) (* (- 12) ?x397) ?x424 (* (- 6) (* z z00)))))
 (let (($x523 (= ?x518 0)))
 (let ((?x354 (* (- 1) ?x50)))
 (let ((?x353 (* (- 12) y00)))
 (let ((?x352 (* (- 6) z00)))
 (let ((?x46 (* 6 z)))
 (let ((?x45 (* 12 y)))
 (let (($x356 (= (+ ?x45 ?x46 ?x352 ?x353 ?x354 ?x282) 0)))
 (let (($x274 (= (+ z (* (- 6) n) (* (- 1) z00) (* 6 n00)) 0)))
 (let (($x432 (and $x274 $x356 $x523 $x683 $x936 $x1233 (not (= (* ?x935 ?x935 ?x935 ?x671 ?x671 ?x671 ?x215 ?x344) 0)))))
 (let ((?x758 (* ?x935 ?x935 ?x935 ?x671 ?x671 ?x671 ?x215 (+ (- 36) ?x283 ?x43 ?x306 (* (- 18) z) ?x49 (* ?x671 ?x671)))))
 (let (($x684 (not (= ?x758 0))))
 (let ((?x196 (* y00 z00 z00 z00)))
 (let ((?x1284 (+ (* 216 (* x00 y00)) (* 108 (* y x)) (* 36 (* x00 z00)) (* (- 2) (* z00 z00 z00 x)) (* 18 (* z00 z00 x)) (* (- 12) (* y00 y00 z00)) (* (- 1) (* y00 y00 z00 z00)) ?x709 ?x714 ?x766 (* 18 (* y00 z00 y)) (* 24 (* y00 z00)) (* (- 120) (* y00 y)) (* (- 24) (* z00 y)) ?x896 (* (- 6) (* z00 y y)) ?x961 (* (- 12) (* y00 y y)) (* (- 36) (* x00 y00 z00)) (* (- 108) (* x00 y)) (* (- 18) (* x00 z00 z00)) (* (- 216) (* x00 x)) ?x196 (* 2 (* x00 z00 z00 z00)) (* (- 216) (* y00 x)) (* z00 z00 y y) (* (- 10) (* y00 z00 z00)) (* (- 36) (* z00 x)) (* 36 (* y00 z00 x)) (* 10 (* z00 z00 y)) ?x1208 (* (- 1) (* z00 z00 z00 y)))))
 (let (($x1289 (= ?x1284 0)))
 (let ((?x74 (* 108 x00)))
 (let ((?x875 (* (- 72) y)))
 (let ((?x67 (* 72 y00)))
 (let ((?x858 (* (- 108) x)))
 (let ((?x437 (* x00 z)))
 (let ((?x941 (* (- 18) ?x437)))
 (let ((?x694 (* 36 ?x490)))
 (let ((?x604 (* z y)))
 (let ((?x960 (* 12 ?x604)))
 (let ((?x333 (* z00 y)))
 (let ((?x279 (* (- 6) ?x333)))
 (let ((?x802 (* y00 z00)))
 (let ((?x443 (* 6 ?x802)))
 (let ((?x565 (* y00 z)))
 (let ((?x394 (* (- 12) ?x565)))
 (let ((?x808 (* y00 z00 y)))
 (let ((?x113 (* y00 y00 z00)))
 (let ((?x591 (* z x)))
 (let ((?x722 (* 18 ?x591)))
 (let ((?x242 (+ (* 18 (* x00 y00)) (* 18 (* y x)) ?x722 (* 3 (* z00 z00 x)) ?x113 (* (- 3) (* x00 z00 z)) ?x808 ?x394 ?x443 (* (- 36) (* y00 y)) ?x279 ?x960 (* 3 (* z00 z x)) (* (- 2) (* z00 y y)) ?x694 ?x941 (* (- 1) (* z y y)) (* (- 18) (* x00 y)) (* (- 3) (* x00 z00 z00)) ?x858 ?x67 (* (- 18) (* y00 x)) ?x875 ?x74 (* (- 1) (* y00 z y)) (* (- 3) (* y00 z00 z00)) (* 2 (* y00 y00 z)) (* 3 (* z00 z00 y)))))
 (let ((?x1172 (* z00 z00 y)))
 (let ((?x334 (* 6 ?x333)))
 (let ((?x731 (* (- 6) ?x802)))
 (let ((?x934 (* 24 ?x490)))
 (let ((?x531 (* y00 z00 z)))
 (let ((?x1111 (+ ?x531 ?x960 ?x722 (* (- 18) (* x00 z00)) (* (- 12) ?x464) ?x934 ?x941 ?x394 ?x731 (* (- 12) (* y00 y)) ?x858 ?x67 ?x334 ?x875 ?x74 (* (- 1) (* y00 z00 z00)) (* 18 (* z00 x)) (* (- 1) (* z00 z y)) ?x1172)))
 (let ((?x580 (* 12 ?x565)))
 (let ((?x857 (* (- 6) ?x282)))
 (let ((?x619 (+ (* 6 ?x604) ?x55 ?x857 ?x580 (* (- 18) ?x802) ?x858 ?x67 (* 6 (* z00 z)) ?x875 ?x74 (* (- 1) (* z00 z00 z)))))
 (let (($x244 (and (= (+ z (* (- 1) z00) (* (- 6) n) (* 6 n00)) 0) (= (+ ?x282 ?x353 ?x45 ?x46 ?x352 ?x354) 0) (= ?x619 0) (= ?x1111 0) (= ?x242 0) $x1289 $x684)))
 (rewrite (= $x244 $x432))))))))))))))))))))))))))))))))))))))))))))))))))))))))))))))))))))))))))))))))))))))))))))))))))))))))))))))))))))))))))
 ))
 (let (($x321 (exists ((x Int) (y Int) (z Int) (n Int) )(! (let ((?x49 (* 6 z00)))
 (let ((?x306 (* (- 12) y)))
 (let ((?x43 (* 12 y00)))
 (let ((?x282 (* z00 z00)))
 (let ((?x283 (* (- 1) ?x282)))
 (let ((?x1065 (+ (- 36) ?x283 ?x43 ?x306 (* (- 18) z) ?x49 (* (+ 6 z) (+ 6 z)))))
 (let ((?x215 (+ y z)))
 (let ((?x671 (+ 6 z)))
 (let ((?x935 (+ 1 n)))
 (let (($x684 (not (= (* ?x935 ?x935 ?x935 ?x671 ?x671 ?x671 ?x215 ?x1065) 0))))
 (let ((?x1207 (* x00 x00)))
 (let ((?x1208 (* 108 ?x1207)))
 (let ((?x196 (* y00 z00 z00 z00)))
 (let ((?x490 (* y00 y00)))
 (let ((?x961 (* 96 ?x490)))
 (let ((?x895 (* y00 y00 y00)))
 (let ((?x896 (* 16 ?x895)))
 (let ((?x766 (* (- 4) (* y y y))))
 (let ((?x714 (* 108 (* x x))))
 (let ((?x464 (* y y)))
 (let ((?x709 (* 24 ?x464)))
 (let ((?x1284 (+ (* 216 (* x00 y00)) (* 108 (* y x)) (* 36 (* x00 z00)) (* (- 2) (* z00 z00 z00 x)) (* 18 (* z00 z00 x)) (* (- 12) (* y00 y00 z00)) (* (- 1) (* y00 y00 z00 z00)) ?x709 ?x714 ?x766 (* 18 (* y00 z00 y)) (* 24 (* y00 z00)) (* (- 120) (* y00 y)) (* (- 24) (* z00 y)) ?x896 (* (- 6) (* z00 y y)) ?x961 (* (- 12) (* y00 y y)) (* (- 36) (* x00 y00 z00)) (* (- 108) (* x00 y)) (* (- 18) (* x00 z00 z00)) (* (- 216) (* x00 x)) ?x196 (* 2 (* x00 z00 z00 z00)) (* (- 216) (* y00 x)) (* z00 z00 y y) (* (- 10) (* y00 z00 z00)) (* (- 36) (* z00 x)) (* 36 (* y00 z00 x)) (* 10 (* z00 z00 y)) ?x1208 (* (- 1) (* z00 z00 z00 y)))))
 (let (($x1289 (= ?x1284 0)))
 (let ((?x262 (* y00 z y)))
 (let ((?x502 (* (- 108) x00)))
 (let ((?x71 (* 72 y)))
 (let ((?x445 (* (- 72) y00)))
 (let ((?x64 (* 108 x)))
 (let ((?x653 (* z y y)))
 (let ((?x437 (* x00 z)))
 (let ((?x440 (* 18 ?x437)))
 (let ((?x793 (* (- 36) ?x490)))
 (let ((?x604 (* z y)))
 (let ((?x866 (* (- 12) ?x604)))
 (let ((?x333 (* z00 y)))
 (let ((?x334 (* 6 ?x333)))
 (let ((?x802 (* y00 z00)))
 (let ((?x731 (* (- 6) ?x802)))
 (let ((?x565 (* y00 z)))
 (let ((?x580 (* 12 ?x565)))
 (let ((?x591 (* z x)))
 (let ((?x882 (* (- 18) ?x591)))
 (let ((?x462 (+ (* (- 18) (* x00 y00)) (* (- 18) (* y x)) ?x882 (* (- 3) (* z00 z00 x)) (* (- 1) (* y00 y00 z00)) (* 3 (* x00 z00 z)) (* (- 1) (* y00 z00 y)) ?x580 ?x731 (* 36 (* y00 y)) ?x334 ?x866 (* (- 3) (* z00 z x)) (* 2 (* z00 y y)) ?x793 ?x440 ?x653 (* 18 (* x00 y)) (* 3 (* x00 z00 z00)) ?x64 ?x445 (* 18 (* y00 x)) ?x71 ?x502 ?x262 (* 3 (* y00 z00 z00)) (* (- 2) (* y00 y00 z)) (* (- 3) (* z00 z00 y)))))
 (let ((?x1155 (* z00 z y)))
 (let ((?x99 (* y00 z00 z00)))
 (let ((?x279 (* (- 6) ?x333)))
 (let ((?x443 (* 6 ?x802)))
 (let ((?x519 (* (- 24) ?x490)))
 (let ((?x467 (* 12 ?x464)))
 (let ((?x1097 (+ (* (- 1) (* y00 z00 z)) ?x866 ?x882 (* 18 (* x00 z00)) ?x467 ?x519 ?x440 ?x580 ?x443 (* 12 (* y00 y)) ?x64 ?x445 ?x279 ?x71 ?x502 ?x99 (* (- 18) (* z00 x)) ?x1155 (* (- 1) (* z00 z00 y)))))
 (let ((?x620 (* z00 z00 z)))
 (let ((?x394 (* (- 12) ?x565)))
 (let ((?x386 (* 6 ?x282)))
 (let ((?x55 (* z00 z00 z00)))
 (let ((?x375 (* (- 1) ?x55)))
 (let ((?x554 (+ (* (- 6) ?x604) ?x375 ?x386 ?x394 (* 18 ?x802) ?x64 ?x445 (* (- 6) (* z00 z)) ?x71 ?x502 ?x620)))
 (and (= (+ (* (- 1) z) z00 (* 6 n) (* (- 6) n00)) 0) (= (+ ?x283 ?x43 ?x306 (* (- 6) z) ?x49 (* z z)) 0) (= ?x554 0) (= ?x1097 0) (= ?x462 0) $x1289 $x684))))))))))))))))))))))))))))))))))))))))))))))))))))))))) :qid k!38))
 ))
 (let ((?x243 (lambda ((x Int) (y Int) (z Int) (n Int) )(let ((?x49 (* 6 z00)))
 (let ((?x306 (* (- 12) y)))
 (let ((?x43 (* 12 y00)))
 (let ((?x282 (* z00 z00)))
 (let ((?x283 (* (- 1) ?x282)))
 (let ((?x1065 (+ (- 36) ?x283 ?x43 ?x306 (* (- 18) z) ?x49 (* (+ 6 z) (+ 6 z)))))
 (let ((?x215 (+ y z)))
 (let ((?x671 (+ 6 z)))
 (let ((?x935 (+ 1 n)))
 (let (($x684 (not (= (* ?x935 ?x935 ?x935 ?x671 ?x671 ?x671 ?x215 ?x1065) 0))))
 (let ((?x1207 (* x00 x00)))
 (let ((?x1208 (* 108 ?x1207)))
 (let ((?x196 (* y00 z00 z00 z00)))
 (let ((?x490 (* y00 y00)))
 (let ((?x961 (* 96 ?x490)))
 (let ((?x895 (* y00 y00 y00)))
 (let ((?x896 (* 16 ?x895)))
 (let ((?x766 (* (- 4) (* y y y))))
 (let ((?x714 (* 108 (* x x))))
 (let ((?x464 (* y y)))
 (let ((?x709 (* 24 ?x464)))
 (let ((?x1284 (+ (* 216 (* x00 y00)) (* 108 (* y x)) (* 36 (* x00 z00)) (* (- 2) (* z00 z00 z00 x)) (* 18 (* z00 z00 x)) (* (- 12) (* y00 y00 z00)) (* (- 1) (* y00 y00 z00 z00)) ?x709 ?x714 ?x766 (* 18 (* y00 z00 y)) (* 24 (* y00 z00)) (* (- 120) (* y00 y)) (* (- 24) (* z00 y)) ?x896 (* (- 6) (* z00 y y)) ?x961 (* (- 12) (* y00 y y)) (* (- 36) (* x00 y00 z00)) (* (- 108) (* x00 y)) (* (- 18) (* x00 z00 z00)) (* (- 216) (* x00 x)) ?x196 (* 2 (* x00 z00 z00 z00)) (* (- 216) (* y00 x)) (* z00 z00 y y) (* (- 10) (* y00 z00 z00)) (* (- 36) (* z00 x)) (* 36 (* y00 z00 x)) (* 10 (* z00 z00 y)) ?x1208 (* (- 1) (* z00 z00 z00 y)))))
 (let (($x1289 (= ?x1284 0)))
 (let ((?x74 (* 108 x00)))
 (let ((?x875 (* (- 72) y)))
 (let ((?x67 (* 72 y00)))
 (let ((?x858 (* (- 108) x)))
 (let ((?x437 (* x00 z)))
 (let ((?x941 (* (- 18) ?x437)))
 (let ((?x694 (* 36 ?x490)))
 (let ((?x604 (* z y)))
 (let ((?x960 (* 12 ?x604)))
 (let ((?x333 (* z00 y)))
 (let ((?x279 (* (- 6) ?x333)))
 (let ((?x802 (* y00 z00)))
 (let ((?x443 (* 6 ?x802)))
 (let ((?x565 (* y00 z)))
 (let ((?x394 (* (- 12) ?x565)))
 (let ((?x808 (* y00 z00 y)))
 (let ((?x113 (* y00 y00 z00)))
 (let ((?x591 (* z x)))
 (let ((?x722 (* 18 ?x591)))
 (let ((?x242 (+ (* 18 (* x00 y00)) (* 18 (* y x)) ?x722 (* 3 (* z00 z00 x)) ?x113 (* (- 3) (* x00 z00 z)) ?x808 ?x394 ?x443 (* (- 36) (* y00 y)) ?x279 ?x960 (* 3 (* z00 z x)) (* (- 2) (* z00 y y)) ?x694 ?x941 (* (- 1) (* z y y)) (* (- 18) (* x00 y)) (* (- 3) (* x00 z00 z00)) ?x858 ?x67 (* (- 18) (* y00 x)) ?x875 ?x74 (* (- 1) (* y00 z y)) (* (- 3) (* y00 z00 z00)) (* 2 (* y00 y00 z)) (* 3 (* z00 z00 y)))))
 (let ((?x1172 (* z00 z00 y)))
 (let ((?x334 (* 6 ?x333)))
 (let ((?x731 (* (- 6) ?x802)))
 (let ((?x934 (* 24 ?x490)))
 (let ((?x531 (* y00 z00 z)))
 (let ((?x1111 (+ ?x531 ?x960 ?x722 (* (- 18) (* x00 z00)) (* (- 12) ?x464) ?x934 ?x941 ?x394 ?x731 (* (- 12) (* y00 y)) ?x858 ?x67 ?x334 ?x875 ?x74 (* (- 1) (* y00 z00 z00)) (* 18 (* z00 x)) (* (- 1) (* z00 z y)) ?x1172)))
 (let ((?x580 (* 12 ?x565)))
 (let ((?x857 (* (- 6) ?x282)))
 (let ((?x55 (* z00 z00 z00)))
 (let ((?x619 (+ (* 6 ?x604) ?x55 ?x857 ?x580 (* (- 18) ?x802) ?x858 ?x67 (* 6 (* z00 z)) ?x875 ?x74 (* (- 1) (* z00 z00 z)))))
 (let ((?x50 (* z z)))
 (let ((?x354 (* (- 1) ?x50)))
 (let ((?x352 (* (- 6) z00)))
 (let ((?x46 (* 6 z)))
 (let ((?x45 (* 12 y)))
 (let ((?x353 (* (- 12) y00)))
 (let (($x244 (and (= (+ z (* (- 1) z00) (* (- 6) n) (* 6 n00)) 0) (= (+ ?x282 ?x353 ?x45 ?x46 ?x352 ?x354) 0) (= ?x619 0) (= ?x1111 0) (= ?x242 0) $x1289 $x684)))
 (let ((?x262 (* y00 z y)))
 (let ((?x502 (* (- 108) x00)))
 (let ((?x71 (* 72 y)))
 (let ((?x445 (* (- 72) y00)))
 (let ((?x64 (* 108 x)))
 (let ((?x653 (* z y y)))
 (let ((?x440 (* 18 ?x437)))
 (let ((?x793 (* (- 36) ?x490)))
 (let ((?x866 (* (- 12) ?x604)))
 (let ((?x882 (* (- 18) ?x591)))
 (let ((?x462 (+ (* (- 18) (* x00 y00)) (* (- 18) (* y x)) ?x882 (* (- 3) (* z00 z00 x)) (* (- 1) ?x113) (* 3 (* x00 z00 z)) (* (- 1) ?x808) ?x580 ?x731 (* 36 (* y00 y)) ?x334 ?x866 (* (- 3) (* z00 z x)) (* 2 (* z00 y y)) ?x793 ?x440 ?x653 (* 18 (* x00 y)) (* 3 (* x00 z00 z00)) ?x64 ?x445 (* 18 (* y00 x)) ?x71 ?x502 ?x262 (* 3 (* y00 z00 z00)) (* (- 2) (* y00 y00 z)) (* (- 3) ?x1172))))
 (let ((?x1155 (* z00 z y)))
 (let ((?x99 (* y00 z00 z00)))
 (let ((?x519 (* (- 24) ?x490)))
 (let ((?x467 (* 12 ?x464)))
 (let ((?x1097 (+ (* (- 1) ?x531) ?x866 ?x882 (* 18 (* x00 z00)) ?x467 ?x519 ?x440 ?x580 ?x443 (* 12 (* y00 y)) ?x64 ?x445 ?x279 ?x71 ?x502 ?x99 (* (- 18) (* z00 x)) ?x1155 (* (- 1) ?x1172))))
 (let ((?x620 (* z00 z00 z)))
 (let ((?x386 (* 6 ?x282)))
 (let ((?x375 (* (- 1) ?x55)))
 (let ((?x554 (+ (* (- 6) ?x604) ?x375 ?x386 ?x394 (* 18 ?x802) ?x64 ?x445 (* (- 6) (* z00 z)) ?x71 ?x502 ?x620)))
 (let (($x987 (and (= (+ (* (- 1) z) z00 (* 6 n) (* (- 6) n00)) 0) (= (+ ?x283 ?x43 ?x306 (* (- 6) z) ?x49 ?x50) 0) (= ?x554 0) (= ?x1097 0) (= ?x462 0) $x1289 $x684)))
 (rewrite (= $x987 $x244))))))))))))))))))))))))))))))))))))))))))))))))))))))))))))))))))))))))))))))))))))
 ))
 (let (($x229 (exists ((x Int) (y Int) (z Int) (n Int) )(! (let ((?x217 (+ z 6)))
 (let ((?x215 (+ y z)))
 (let ((?x223 (+ n 1)))
 (let ((?x29 (- 1)))
 (let ((?x49 (* 6 z00)))
 (let ((?x220 (- (- (+ (* ?x29 z00 z00) (* 12 y00)) (* 12 ?x215)) (* 6 ?x217))))
 (let ((?x224 (* (+ ?x220 ?x49 (* ?x217 ?x217)) ?x29 ?x223 ?x223 ?x223 ?x215 ?x217 ?x217 ?x217)))
 (let ((?x212 (* y z00 z00 z00)))
 (let ((?x201 (* y y z00 z00)))
 (let ((?x196 (* y00 z00 z00 z00)))
 (let ((?x161 (* y00 y00 z00 z00)))
 (let ((?x157 (- (+ (* 216 x00 y00) (* 108 x y) (* 36 x00 z00)) (* 2 x z00 z00 z00))))
 (let ((?x163 (- (- (+ ?x157 (* 18 x z00 z00)) (* 12 y00 y00 z00)) ?x161)))
 (let ((?x169 (- (+ ?x163 (* 24 y y) (* 108 x x)) (* 4 y y y))))
 (let ((?x176 (- (+ ?x169 (* 18 y y00 z00) (* 24 y00 z00)) (* 120 y y00))))
 (let ((?x182 (- (+ (- ?x176 (* 24 y z00)) (* 16 y00 y00 y00)) (* 6 y y z00))))
 (let ((?x192 (- (- (+ ?x182 (* 96 y00 y00)) (* 12 y y y00)) (* 36 x00 y00 z00))))
 (let ((?x195 (- (- (- ?x192 (* 108 x00 y)) (* 18 x00 z00 z00)) (* 216 x x00))))
 (let ((?x200 (- (+ ?x195 ?x196 (* 2 x00 z00 z00 z00)) (* 216 x y00))))
 (let ((?x207 (- (- (+ ?x200 ?x201) (* 10 y00 z00 z00)) (* 36 x z00))))
 (let ((?x211 (+ ?x207 (* 36 x y00 z00) (* 10 y z00 z00) (* 108 x00 x00))))
 (let ((?x74 (* 108 x00)))
 (let ((?x71 (* 72 y)))
 (let ((?x67 (* 72 y00)))
 (let ((?x64 (* 108 x)))
 (let ((?x135 (* y y z)))
 (let ((?x90 (* 18 x00 z)))
 (let ((?x80 (* 12 y z)))
 (let ((?x94 (* 6 y z00)))
 (let ((?x91 (* 6 y00 z00)))
 (let ((?x59 (* 12 y00 z)))
 (let ((?x113 (* y00 y00 z00)))
 (let ((?x81 (* 18 x z)))
 (let ((?x116 (- (- (- (* (- 18) x00 y00) (* 18 x y)) ?x81) (* 3 x z00 z00))))
 (let ((?x121 (- (+ (- ?x116 ?x113) (* 3 x00 z z00)) (* y y00 z00))))
 (let ((?x129 (- (- (+ (- (+ ?x121 ?x59) ?x91) (* 36 y y00) ?x94) ?x80) (* 3 x z z00))))
 (let ((?x138 (+ (- (+ ?x129 (* 2 y y z00)) (* 36 y00 y00)) ?x90 ?x135 (* 18 x00 y) (* 3 x00 z00 z00) ?x64)))
 (let ((?x145 (+ (- (+ (- ?x138 ?x67) (* 18 x y00) ?x71) ?x74) (* y y00 z) (* 3 y00 z00 z00))))
 (let (($x150 (= (- (- ?x145 (* 2 y00 y00 z)) (* 3 y z00 z00)) 0)))
 (let ((?x105 (* y z00 z00)))
 (let ((?x103 (* y z z00)))
 (let ((?x99 (* y00 z00 z00)))
 (let ((?x86 (+ (- (- (* ?x29 y00 z z00) ?x80) ?x81) (* 18 x00 z00) (* 12 y y))))
 (let ((?x93 (+ (- ?x86 (* 24 y00 y00)) ?x90 ?x59 ?x91 (* 12 y y00) ?x64)))
 (let ((?x102 (- (+ (- (+ (- (- ?x93 ?x67) ?x94) ?x71) ?x74) ?x99) (* 18 x z00))))
 (let ((?x76 (* z z00 z00)))
 (let ((?x58 (+ (- (* (- 6) y z) (* z00 z00 z00)) (* 6 z00 z00))))
 (let ((?x70 (- (- (+ (- ?x58 ?x59) (* 18 y00 z00) ?x64) ?x67) (* 6 z z00))))
 (let ((?x50 (* z z)))
 (let ((?x46 (* 6 z)))
 (let ((?x48 (- (- (+ (* ?x29 z00 z00) (* 12 y00)) (* 12 y)) ?x46)))
 (let (($x39 (= (- (+ (* ?x29 z) z00 (* 6 n)) (* 6 n00)) 0)))
 (and $x39 (= (+ ?x48 ?x49 ?x50) 0) (= (+ (- (+ ?x70 ?x71) ?x74) ?x76) 0) (= (- (+ ?x102 ?x103) ?x105) 0) $x150 (= (- ?x211 ?x212) 0) (or (not (= ?x224 0)))))))))))))))))))))))))))))))))))))))))))))))))))))))) :qid k!38))
 ))
 (let ((?x325 (lambda ((x Int) (y Int) (z Int) (n Int) )(let ((?x49 (* 6 z00)))
 (let ((?x306 (* (- 12) y)))
 (let ((?x43 (* 12 y00)))
 (let ((?x282 (* z00 z00)))
 (let ((?x283 (* (- 1) ?x282)))
 (let ((?x1065 (+ (- 36) ?x283 ?x43 ?x306 (* (- 18) z) ?x49 (* (+ 6 z) (+ 6 z)))))
 (let ((?x215 (+ y z)))
 (let ((?x671 (+ 6 z)))
 (let ((?x935 (+ 1 n)))
 (let (($x684 (not (= (* ?x935 ?x935 ?x935 ?x671 ?x671 ?x671 ?x215 ?x1065) 0))))
 (let ((?x1207 (* x00 x00)))
 (let ((?x1208 (* 108 ?x1207)))
 (let ((?x196 (* y00 z00 z00 z00)))
 (let ((?x490 (* y00 y00)))
 (let ((?x961 (* 96 ?x490)))
 (let ((?x895 (* y00 y00 y00)))
 (let ((?x896 (* 16 ?x895)))
 (let ((?x766 (* (- 4) (* y y y))))
 (let ((?x714 (* 108 (* x x))))
 (let ((?x464 (* y y)))
 (let ((?x709 (* 24 ?x464)))
 (let ((?x1284 (+ (* 216 (* x00 y00)) (* 108 (* y x)) (* 36 (* x00 z00)) (* (- 2) (* z00 z00 z00 x)) (* 18 (* z00 z00 x)) (* (- 12) (* y00 y00 z00)) (* (- 1) (* y00 y00 z00 z00)) ?x709 ?x714 ?x766 (* 18 (* y00 z00 y)) (* 24 (* y00 z00)) (* (- 120) (* y00 y)) (* (- 24) (* z00 y)) ?x896 (* (- 6) (* z00 y y)) ?x961 (* (- 12) (* y00 y y)) (* (- 36) (* x00 y00 z00)) (* (- 108) (* x00 y)) (* (- 18) (* x00 z00 z00)) (* (- 216) (* x00 x)) ?x196 (* 2 (* x00 z00 z00 z00)) (* (- 216) (* y00 x)) (* z00 z00 y y) (* (- 10) (* y00 z00 z00)) (* (- 36) (* z00 x)) (* 36 (* y00 z00 x)) (* 10 (* z00 z00 y)) ?x1208 (* (- 1) (* z00 z00 z00 y)))))
 (let (($x1289 (= ?x1284 0)))
 (let ((?x262 (* y00 z y)))
 (let ((?x502 (* (- 108) x00)))
 (let ((?x71 (* 72 y)))
 (let ((?x445 (* (- 72) y00)))
 (let ((?x64 (* 108 x)))
 (let ((?x653 (* z y y)))
 (let ((?x437 (* x00 z)))
 (let ((?x440 (* 18 ?x437)))
 (let ((?x793 (* (- 36) ?x490)))
 (let ((?x604 (* z y)))
 (let ((?x866 (* (- 12) ?x604)))
 (let ((?x333 (* z00 y)))
 (let ((?x334 (* 6 ?x333)))
 (let ((?x802 (* y00 z00)))
 (let ((?x731 (* (- 6) ?x802)))
 (let ((?x565 (* y00 z)))
 (let ((?x580 (* 12 ?x565)))
 (let ((?x591 (* z x)))
 (let ((?x882 (* (- 18) ?x591)))
 (let ((?x462 (+ (* (- 18) (* x00 y00)) (* (- 18) (* y x)) ?x882 (* (- 3) (* z00 z00 x)) (* (- 1) (* y00 y00 z00)) (* 3 (* x00 z00 z)) (* (- 1) (* y00 z00 y)) ?x580 ?x731 (* 36 (* y00 y)) ?x334 ?x866 (* (- 3) (* z00 z x)) (* 2 (* z00 y y)) ?x793 ?x440 ?x653 (* 18 (* x00 y)) (* 3 (* x00 z00 z00)) ?x64 ?x445 (* 18 (* y00 x)) ?x71 ?x502 ?x262 (* 3 (* y00 z00 z00)) (* (- 2) (* y00 y00 z)) (* (- 3) (* z00 z00 y)))))
 (let ((?x1155 (* z00 z y)))
 (let ((?x99 (* y00 z00 z00)))
 (let ((?x279 (* (- 6) ?x333)))
 (let ((?x443 (* 6 ?x802)))
 (let ((?x519 (* (- 24) ?x490)))
 (let ((?x467 (* 12 ?x464)))
 (let ((?x1097 (+ (* (- 1) (* y00 z00 z)) ?x866 ?x882 (* 18 (* x00 z00)) ?x467 ?x519 ?x440 ?x580 ?x443 (* 12 (* y00 y)) ?x64 ?x445 ?x279 ?x71 ?x502 ?x99 (* (- 18) (* z00 x)) ?x1155 (* (- 1) (* z00 z00 y)))))
 (let ((?x620 (* z00 z00 z)))
 (let ((?x394 (* (- 12) ?x565)))
 (let ((?x386 (* 6 ?x282)))
 (let ((?x55 (* z00 z00 z00)))
 (let ((?x375 (* (- 1) ?x55)))
 (let ((?x554 (+ (* (- 6) ?x604) ?x375 ?x386 ?x394 (* 18 ?x802) ?x64 ?x445 (* (- 6) (* z00 z)) ?x71 ?x502 ?x620)))
 (let (($x987 (and (= (+ (* (- 1) z) z00 (* 6 n) (* (- 6) n00)) 0) (= (+ ?x283 ?x43 ?x306 (* (- 6) z) ?x49 (* z z)) 0) (= ?x554 0) (= ?x1097 0) (= ?x462 0) $x1289 $x684)))
 (let ((?x217 (+ z 6)))
 (let ((?x223 (+ n 1)))
 (let ((?x29 (- 1)))
 (let ((?x220 (- (- (+ (* ?x29 z00 z00) ?x43) (* 12 ?x215)) (* 6 ?x217))))
 (let ((?x224 (* (+ ?x220 ?x49 (* ?x217 ?x217)) ?x29 ?x223 ?x223 ?x223 ?x215 ?x217 ?x217 ?x217)))
 (let ((?x212 (* y z00 z00 z00)))
 (let ((?x201 (* y y z00 z00)))
 (let ((?x161 (* y00 y00 z00 z00)))
 (let ((?x157 (- (+ (* 216 x00 y00) (* 108 x y) (* 36 x00 z00)) (* 2 x z00 z00 z00))))
 (let ((?x163 (- (- (+ ?x157 (* 18 x z00 z00)) (* 12 y00 y00 z00)) ?x161)))
 (let ((?x169 (- (+ ?x163 (* 24 y y) (* 108 x x)) (* 4 y y y))))
 (let ((?x176 (- (+ ?x169 (* 18 y y00 z00) (* 24 y00 z00)) (* 120 y y00))))
 (let ((?x182 (- (+ (- ?x176 (* 24 y z00)) (* 16 y00 y00 y00)) (* 6 y y z00))))
 (let ((?x192 (- (- (+ ?x182 (* 96 y00 y00)) (* 12 y y y00)) (* 36 x00 y00 z00))))
 (let ((?x195 (- (- (- ?x192 (* 108 x00 y)) (* 18 x00 z00 z00)) (* 216 x x00))))
 (let ((?x200 (- (+ ?x195 ?x196 (* 2 x00 z00 z00 z00)) (* 216 x y00))))
 (let ((?x207 (- (- (+ ?x200 ?x201) (* 10 y00 z00 z00)) (* 36 x z00))))
 (let ((?x211 (+ ?x207 (* 36 x y00 z00) (* 10 y z00 z00) (* 108 x00 x00))))
 (let ((?x74 (* 108 x00)))
 (let ((?x67 (* 72 y00)))
 (let ((?x135 (* y y z)))
 (let ((?x90 (* 18 x00 z)))
 (let ((?x80 (* 12 y z)))
 (let ((?x94 (* 6 y z00)))
 (let ((?x91 (* 6 y00 z00)))
 (let ((?x59 (* 12 y00 z)))
 (let ((?x113 (* y00 y00 z00)))
 (let ((?x81 (* 18 x z)))
 (let ((?x116 (- (- (- (* (- 18) x00 y00) (* 18 x y)) ?x81) (* 3 x z00 z00))))
 (let ((?x121 (- (+ (- ?x116 ?x113) (* 3 x00 z z00)) (* y y00 z00))))
 (let ((?x129 (- (- (+ (- (+ ?x121 ?x59) ?x91) (* 36 y y00) ?x94) ?x80) (* 3 x z z00))))
 (let ((?x138 (+ (- (+ ?x129 (* 2 y y z00)) (* 36 y00 y00)) ?x90 ?x135 (* 18 x00 y) (* 3 x00 z00 z00) ?x64)))
 (let ((?x145 (+ (- (+ (- ?x138 ?x67) (* 18 x y00) ?x71) ?x74) (* y y00 z) (* 3 y00 z00 z00))))
 (let (($x150 (= (- (- ?x145 (* 2 y00 y00 z)) (* 3 y z00 z00)) 0)))
 (let ((?x105 (* y z00 z00)))
 (let ((?x103 (* y z z00)))
 (let ((?x86 (+ (- (- (* ?x29 y00 z z00) ?x80) ?x81) (* 18 x00 z00) (* 12 y y))))
 (let ((?x93 (+ (- ?x86 (* 24 y00 y00)) ?x90 ?x59 ?x91 (* 12 y y00) ?x64)))
 (let ((?x102 (- (+ (- (+ (- (- ?x93 ?x67) ?x94) ?x71) ?x74) ?x99) (* 18 x z00))))
 (let ((?x76 (* z z00 z00)))
 (let ((?x60 (- (+ (- (* (- 6) y z) ?x55) (* 6 z00 z00)) ?x59)))
 (let ((?x70 (- (- (+ ?x60 (* 18 y00 z00) ?x64) ?x67) (* 6 z z00))))
 (let ((?x50 (* z z)))
 (let ((?x46 (* 6 z)))
 (let ((?x51 (+ (- (- (+ (* ?x29 z00 z00) ?x43) (* 12 y)) ?x46) ?x49 ?x50)))
 (let (($x39 (= (- (+ (* ?x29 z) z00 (* 6 n)) (* 6 n00)) 0)))
 (let (($x228 (and $x39 (= ?x51 0) (= (+ (- (+ ?x70 ?x71) ?x74) ?x76) 0) (= (- (+ ?x102 ?x103) ?x105) 0) $x150 (= (- ?x211 ?x212) 0) (or (not (= ?x224 0))))))
 (rewrite (= $x228 $x987)))))))))))))))))))))))))))))))))))))))))))))))))))))))))))))))))))))))))))))))))))))))))))))))))))))))))))
 ))
 (let ((@x230 (asserted $x229)))
 (let ((@x1286 (mp (mp @x230 (quant-intro (proof-bind ?x325) (= $x229 $x321)) $x321) (rewrite (= $x321 $x321)) $x321)))
 (let ((@x1127 (mp (mp @x1286 (quant-intro (proof-bind ?x243) (= $x321 $x360)) $x360) (quant-intro (proof-bind ?x577) (= $x360 $x576)) $x576)))
 (let ((@x626 (mp (mp~ @x1127 (sk (~ $x576 $x503)) $x503) (rewrite (= $x503 $x894)) $x894)))
 (let ((@x922 (and-elim @x626 $x381)))
 (let ((@x908 (unit-resolution ((_ th-lemma arith triangle-eq) (or (not $x381) $x871)) @x922 $x871)))
 (let (($x291 (>= ?x741 0)))
 (let ((@x436 (unit-resolution ((_ th-lemma arith triangle-eq) (or (not $x381) $x291)) @x922 $x291)))
 (let (($x880 (not (<= ?x909 0))))
 (let (($x726 (>= ?x909 0)))
 (let ((@x1216 (unit-resolution ((_ th-lemma arith triangle-eq) (or $x826 $x880 (not $x726))) (and-elim @x626 $x601) (or $x880 (not $x726)))))
 (let ((@x1212 (unit-resolution @x1216 (lemma ((_ th-lemma arith farkas 1 1 1) (hypothesis (not $x726)) @x436 @x908 false) $x726) $x880)))
 ((_ th-lemma arith farkas 1 1 1) @x1212 @x436 @x908 false))))))))))))))))))))))))))))))))))))))))))))))))))))))))))))))))))))))))))))))))))))))))))))))))))))))))))))))))))

(:added-eqs                 6
 :arith-assert-diseq        1
 :arith-assert-lower        10
 :arith-assert-upper        9
 :arith-conflicts           2
 :arith-eq-adapter          7
 :arith-num-rows            9
 :arith-pseudo-nonlinear    2
 :arith-tableau-max-columns 94
 :arith-tableau-max-rows    9
 :conflicts                 2
 :decisions                 1
 :del-clause                20
 :max-memory                3.89
 :memory                    3.27
 :mk-bool-var               27
 :mk-clause                 22
 :num-allocs                1299015
 :num-checks                1
 :propagations              14
 :rlimit-count              7034
 :time                      0.01
 :total-time                0.02)
